[VALIDATOR STDOUT]
Type-checking pick-package
...action passes type checking.
Type-checking drop-package
...action passes type checking.
Type-checking move
...action passes type checking.
Checking plan: /home/jfan5/Safety-gen/runs/benchmark/optic/delivery_20260215_225923/delivery/optic_results/delivery_size4_packages1_seed4001.plan
Plan to validate:

Plan size: 9
1:
(move t1 c_1_2 c_1_3)
 
2:
(move t1 c_1_3 c_2_3)
 
3:
(move t1 c_2_3 c_3_3)
 
4:
(move t1 c_3_3 c_3_2)
 
5:
(move t1 c_3_2 c_3_1)
 
6:
(pick-package t1 p1 c_3_1)
 
7:
(move t1 c_3_1 c_3_2)
 
8:
(move t1 c_3_2 c_3_3)
 
9:
(drop-package t1 p1 c_3_3)
 

Plan Validation details
-----------------------

Checking next happening (time 1)
Deleting (at t1 c_1_2)
Adding (at t1 c_1_3)

Checking next happening (time 2)
Deleting (at t1 c_1_3)
Adding (at t1 c_2_3)

Checking next happening (time 3)
Deleting (at t1 c_2_3)
Adding (at t1 c_3_3)

Checking next happening (time 4)
Deleting (at t1 c_3_3)
Adding (at t1 c_3_2)

Checking next happening (time 5)
Deleting (at t1 c_3_2)
Adding (at t1 c_3_1)

Checking next happening (time 6)
Deleting (at p1 c_3_1)
Deleting (empty t1)
Adding (carrying t1 p1)

Checking next happening (time 7)
Deleting (at t1 c_3_1)
Adding (at t1 c_3_2)

Checking next happening (time 8)
Deleting (at t1 c_3_2)
Adding (at t1 c_3_3)

Checking next happening (time 9)
Deleting (carrying t1 p1)
Adding (empty t1)
Adding (at p1 c_3_3)
Plan executed successfully - checking goal
Plan valid
Final value: 9 

Successful plans:
Value: 9
 /home/jfan5/Safety-gen/runs/benchmark/optic/delivery_20260215_225923/delivery/optic_results/delivery_size4_packages1_seed4001.plan 9
